
******************************************************************************
This program contains Ipopt, a library for large-scale nonlinear optimization.
 Ipopt is released as open source code under the Eclipse Public License (EPL).
         For more information visit http://projects.coin-or.org/Ipopt
******************************************************************************

This is Ipopt version 3.12.6, running with linear solver ma57.

Number of nonzeros in equality constraint Jacobian...:    29994
Number of nonzeros in inequality constraint Jacobian.:        0
Number of nonzeros in Lagrangian Hessian.............:    15000

Total number of variables............................:    10000
                     variables with only lower bounds:        0
                variables with lower and upper bounds:        0
                     variables with only upper bounds:        0
Total number of equality constraints.................:     9998
Total number of inequality constraints...............:        0
        inequality constraints with only lower bounds:        0
   inequality constraints with lower and upper bounds:        0
        inequality constraints with only upper bounds:        0

iter    objective    inf_pr   inf_du lg(mu)  ||d||  lg(rg) alpha_du alpha_pr  ls
   0  1.0000000e+04 7.00e+00 3.96e+00  -1.0 0.00e+00    -  0.00e+00 0.00e+00   0
   1  2.0977060e+04 4.01e+00 1.67e+01  -1.0 1.42e+00    -  1.00e+00 1.00e+00h  1
   2  1.4434375e+04 1.85e+00 2.40e+01  -1.0 9.62e-01    -  1.00e+00 1.00e+00f  1
   3  4.5703088e+03 7.93e-01 1.13e+02  -1.0 6.30e-01   2.0 1.00e+00 1.00e+00f  1
   4  3.6054126e+03 3.20e-01 4.21e+01  -1.0 4.00e-01    -  1.00e+00 1.00e+00f  1
   5  3.5361552e+03 4.88e-01 1.87e+00  -1.0 4.94e-01    -  1.00e+00 1.00e+00f  1
   6  3.5353077e+03 2.93e-02 3.61e+00  -1.0 1.21e-01   1.5 1.00e+00 1.00e+00h  1
   7  3.5352290e+03 6.19e-03 5.09e-01  -1.0 1.47e-01    -  1.00e+00 1.00e+00h  1
   8  3.5352017e+03 7.31e-02 4.03e-01  -1.7 1.47e+00    -  1.00e+00 1.25e-01f  4
   9  3.5351953e+03 1.09e-01 1.94e-01  -1.7 6.56e-01    -  1.00e+00 2.50e-01h  3
iter    objective    inf_pr   inf_du lg(mu)  ||d||  lg(rg) alpha_du alpha_pr  ls
  10  3.5351159e+03 8.33e-03 5.78e-02  -2.5 6.45e-02    -  1.00e+00 1.00e+00h  1
  11  3.5351033e+03 2.55e-04 1.51e-03  -2.5 1.13e-02    -  1.00e+00 1.00e+00h  1
  12  3.5351030e+03 3.56e-06 1.13e-05  -3.8 1.33e-03    -  1.00e+00 1.00e+00h  1
  13  3.5351030e+03 4.96e-11 2.67e-10  -8.6 4.98e-06    -  1.00e+00 1.00e+00h  1

Number of Iterations....: 13

                                   (scaled)                 (unscaled)
Objective...............:   3.5351029702550973e+03    3.5351029702550973e+03
Dual infeasibility......:   2.6667823505022170e-10    2.6667823505022170e-10
Constraint violation....:   4.9554915726446325e-11    4.9554915726446325e-11
Complementarity.........:   0.0000000000000000e+00    0.0000000000000000e+00
Overall NLP error.......:   2.6667823505022170e-10    2.6667823505022170e-10


Number of objective function evaluations             = 21
Number of objective gradient evaluations             = 14
Number of equality constraint evaluations            = 21
Number of inequality constraint evaluations          = 0
Number of equality constraint Jacobian evaluations   = 14
Number of inequality constraint Jacobian evaluations = 0
Number of Lagrangian Hessian evaluations             = 13
Total CPU secs in IPOPT (w/o function evaluations)   =      0.113
Total CPU secs in NLP function evaluations           =      0.133

EXIT: Optimal Solution Found.
Note: The following floating-point exceptions are signalling: IEEE_INVALID_FLAG IEEE_DIVIDE_BY_ZERO

************************ CUTEst statistics ************************


 Package used            :  IPOPT
 Problem                 :  LUKVLE10  
 # variables             =           10000
 # constraints           =            9998
 # objective functions   =        0.3600000E+02
 # objective gradients   =        0.1500000E+02
 # objective Hessians    =        0.1400000E+02
 # Hessian-vector prdct  =        0.0000000E+00
 # constraints functions =        0.3700000E+02
 # constraints gradients =        0.1600000E+02
 # constraints Hessians  =        0.1400000E+02
 Exit code               =               0
 Final f                 =   0.3535103E+04
 Set up time             =            0.29 seconds
 Solve time              =            0.26 seconds


******************************************************************

System Time =       0.2579999864 s.
